p cnf 336 1498
1 2 0
-1 -2 0
43 44 0
-43 -44 0
85 86 0
-85 -86 0
127 128 0
-127 -128 0
169 170 0
-169 -170 0
211 212 0
-211 -212 0
253 254 0
-253 -254 0
295 296 0
-295 -296 0
3 4 0
-3 -4 0
45 46 0
-45 -46 0
87 88 0
-87 -88 0
129 130 0
-129 -130 0
171 172 0
-171 -172 0
213 214 0
-213 -214 0
255 256 0
-255 -256 0
297 298 0
-297 -298 0
5 6 0
-5 -6 0
47 48 0
-47 -48 0
89 90 0
-89 -90 0
131 132 0
-131 -132 0
173 174 0
-173 -174 0
215 216 0
-215 -216 0
257 258 0
-257 -258 0
299 300 0
-299 -300 0
7 8 0
-7 -8 0
49 50 0
-49 -50 0
91 92 0
-91 -92 0
133 134 0
-133 -134 0
175 176 0
-175 -176 0
217 218 0
-217 -218 0
259 260 0
-259 -260 0
301 302 0
-301 -302 0
9 10 0
-9 -10 0
51 52 0
-51 -52 0
93 94 0
-93 -94 0
135 136 0
-135 -136 0
177 178 0
-177 -178 0
219 220 0
-219 -220 0
261 262 0
-261 -262 0
303 304 0
-303 -304 0
11 12 0
-11 -12 0
53 54 0
-53 -54 0
95 96 0
-95 -96 0
137 138 0
-137 -138 0
179 180 0
-179 -180 0
221 222 0
-221 -222 0
263 264 0
-263 -264 0
305 306 0
-305 -306 0
13 14 0
-13 -14 0
55 56 0
-55 -56 0
97 98 0
-97 -98 0
139 140 0
-139 -140 0
181 182 0
-181 -182 0
223 224 0
-223 -224 0
265 266 0
-265 -266 0
307 308 0
-307 -308 0
15 16 0
-15 -16 0
57 58 0
-57 -58 0
99 100 0
-99 -100 0
141 142 0
-141 -142 0
183 184 0
-183 -184 0
225 226 0
-225 -226 0
267 268 0
-267 -268 0
309 310 0
-309 -310 0
17 18 0
-17 -18 0
59 60 0
-59 -60 0
101 102 0
-101 -102 0
143 144 0
-143 -144 0
185 186 0
-185 -186 0
227 228 0
-227 -228 0
269 270 0
-269 -270 0
311 312 0
-311 -312 0
19 20 0
-19 -20 0
61 62 0
-61 -62 0
103 104 0
-103 -104 0
145 146 0
-145 -146 0
187 188 0
-187 -188 0
229 230 0
-229 -230 0
271 272 0
-271 -272 0
313 314 0
-313 -314 0
21 22 0
-21 -22 0
63 64 0
-63 -64 0
105 106 0
-105 -106 0
147 148 0
-147 -148 0
189 190 0
-189 -190 0
231 232 0
-231 -232 0
273 274 0
-273 -274 0
315 316 0
-315 -316 0
23 24 0
-23 -24 0
65 66 0
-65 -66 0
107 108 0
-107 -108 0
149 150 0
-149 -150 0
191 192 0
-191 -192 0
233 234 0
-233 -234 0
275 276 0
-275 -276 0
317 318 0
-317 -318 0
25 26 0
-25 -26 0
67 68 0
-67 -68 0
109 110 0
-109 -110 0
151 152 0
-151 -152 0
193 194 0
-193 -194 0
235 236 0
-235 -236 0
277 278 0
-277 -278 0
319 320 0
-319 -320 0
27 28 0
-27 -28 0
69 70 0
-69 -70 0
111 112 0
-111 -112 0
153 154 0
-153 -154 0
195 196 0
-195 -196 0
237 238 0
-237 -238 0
279 280 0
-279 -280 0
321 322 0
-321 -322 0
29 30 0
-29 -30 0
71 72 0
-71 -72 0
113 114 0
-113 -114 0
155 156 0
-155 -156 0
197 198 0
-197 -198 0
239 240 0
-239 -240 0
281 282 0
-281 -282 0
323 324 0
-323 -324 0
31 32 0
-31 -32 0
73 74 0
-73 -74 0
115 116 0
-115 -116 0
157 158 0
-157 -158 0
199 200 0
-199 -200 0
241 242 0
-241 -242 0
283 284 0
-283 -284 0
325 326 0
-325 -326 0
33 34 0
-33 -34 0
75 76 0
-75 -76 0
117 118 0
-117 -118 0
159 160 0
-159 -160 0
201 202 0
-201 -202 0
243 244 0
-243 -244 0
285 286 0
-285 -286 0
327 328 0
-327 -328 0
35 36 0
-35 -36 0
77 78 0
-77 -78 0
119 120 0
-119 -120 0
161 162 0
-161 -162 0
203 204 0
-203 -204 0
245 246 0
-245 -246 0
287 288 0
-287 -288 0
329 330 0
-329 -330 0
37 38 0
-37 -38 0
79 80 0
-79 -80 0
121 122 0
-121 -122 0
163 164 0
-163 -164 0
205 206 0
-205 -206 0
247 248 0
-247 -248 0
289 290 0
-289 -290 0
331 332 0
-331 -332 0
39 40 0
-39 -40 0
81 82 0
-81 -82 0
123 124 0
-123 -124 0
165 166 0
-165 -166 0
207 208 0
-207 -208 0
249 250 0
-249 -250 0
291 292 0
-291 -292 0
333 334 0
-333 -334 0
41 42 0
-41 -42 0
83 84 0
-83 -84 0
125 126 0
-125 -126 0
167 168 0
-167 -168 0
209 210 0
-209 -210 0
251 252 0
-251 -252 0
293 294 0
-293 -294 0
335 336 0
-335 -336 0
-1 -43 4 0
-1 -44 4 0
-2 -43 4 0
-2 -44 3 0
-43 -1 -85 46 0
-43 -2 -85 46 0
-43 -1 -86 46 0
-43 -2 -86 46 0
-44 -1 -85 46 0
-44 -2 -85 46 0
-44 -1 -86 46 0
-44 -2 -86 45 0
-85 -43 -127 88 0
-85 -44 -127 88 0
-85 -43 -128 88 0
-85 -44 -128 88 0
-86 -43 -127 88 0
-86 -44 -127 88 0
-86 -43 -128 88 0
-86 -44 -128 87 0
-127 -85 -169 130 0
-127 -86 -169 130 0
-127 -85 -170 130 0
-127 -86 -170 130 0
-128 -85 -169 130 0
-128 -86 -169 130 0
-128 -85 -170 130 0
-128 -86 -170 129 0
-169 -127 -211 172 0
-169 -128 -211 172 0
-169 -127 -212 172 0
-169 -128 -212 172 0
-170 -127 -211 172 0
-170 -128 -211 172 0
-170 -127 -212 172 0
-170 -128 -212 171 0
-211 -169 -253 214 0
-211 -170 -253 214 0
-211 -169 -254 214 0
-211 -170 -254 214 0
-212 -169 -253 214 0
-212 -170 -253 214 0
-212 -169 -254 214 0
-212 -170 -254 213 0
-253 -211 -295 256 0
-253 -212 -295 256 0
-253 -211 -296 256 0
-253 -212 -296 256 0
-254 -211 -295 256 0
-254 -212 -295 256 0
-254 -211 -296 256 0
-254 -212 -296 255 0
-295 -253 298 0
-295 -254 298 0
-296 -253 298 0
-296 -254 297 0
-3 -45 6 0
-3 -46 6 0
-4 -45 6 0
-4 -46 5 0
-45 -3 -87 48 0
-45 -4 -87 48 0
-45 -3 -88 48 0
-45 -4 -88 48 0
-46 -3 -87 48 0
-46 -4 -87 48 0
-46 -3 -88 48 0
-46 -4 -88 47 0
-87 -45 -129 90 0
-87 -46 -129 90 0
-87 -45 -130 90 0
-87 -46 -130 90 0
-88 -45 -129 90 0
-88 -46 -129 90 0
-88 -45 -130 90 0
-88 -46 -130 89 0
-129 -87 -171 132 0
-129 -88 -171 132 0
-129 -87 -172 132 0
-129 -88 -172 132 0
-130 -87 -171 132 0
-130 -88 -171 132 0
-130 -87 -172 132 0
-130 -88 -172 131 0
-171 -129 -213 174 0
-171 -130 -213 174 0
-171 -129 -214 174 0
-171 -130 -214 174 0
-172 -129 -213 174 0
-172 -130 -213 174 0
-172 -129 -214 174 0
-172 -130 -214 173 0
-213 -171 -255 216 0
-213 -172 -255 216 0
-213 -171 -256 216 0
-213 -172 -256 216 0
-214 -171 -255 216 0
-214 -172 -255 216 0
-214 -171 -256 216 0
-214 -172 -256 215 0
-255 -213 -297 258 0
-255 -214 -297 258 0
-255 -213 -298 258 0
-255 -214 -298 258 0
-256 -213 -297 258 0
-256 -214 -297 258 0
-256 -213 -298 258 0
-256 -214 -298 257 0
-297 -255 300 0
-297 -256 300 0
-298 -255 300 0
-298 -256 299 0
-5 -47 8 0
-5 -48 8 0
-6 -47 8 0
-6 -48 7 0
-47 -5 -89 50 0
-47 -6 -89 50 0
-47 -5 -90 50 0
-47 -6 -90 50 0
-48 -5 -89 50 0
-48 -6 -89 50 0
-48 -5 -90 50 0
-48 -6 -90 49 0
-89 -47 -131 92 0
-89 -48 -131 92 0
-89 -47 -132 92 0
-89 -48 -132 92 0
-90 -47 -131 92 0
-90 -48 -131 92 0
-90 -47 -132 92 0
-90 -48 -132 91 0
-131 -89 -173 134 0
-131 -90 -173 134 0
-131 -89 -174 134 0
-131 -90 -174 134 0
-132 -89 -173 134 0
-132 -90 -173 134 0
-132 -89 -174 134 0
-132 -90 -174 133 0
-173 -131 -215 176 0
-173 -132 -215 176 0
-173 -131 -216 176 0
-173 -132 -216 176 0
-174 -131 -215 176 0
-174 -132 -215 176 0
-174 -131 -216 176 0
-174 -132 -216 175 0
-215 -173 -257 218 0
-215 -174 -257 218 0
-215 -173 -258 218 0
-215 -174 -258 218 0
-216 -173 -257 218 0
-216 -174 -257 218 0
-216 -173 -258 218 0
-216 -174 -258 217 0
-257 -215 -299 260 0
-257 -216 -299 260 0
-257 -215 -300 260 0
-257 -216 -300 260 0
-258 -215 -299 260 0
-258 -216 -299 260 0
-258 -215 -300 260 0
-258 -216 -300 259 0
-299 -257 302 0
-299 -258 302 0
-300 -257 302 0
-300 -258 301 0
-7 -49 10 0
-7 -50 10 0
-8 -49 10 0
-8 -50 9 0
-49 -7 -91 52 0
-49 -8 -91 52 0
-49 -7 -92 52 0
-49 -8 -92 52 0
-50 -7 -91 52 0
-50 -8 -91 52 0
-50 -7 -92 52 0
-50 -8 -92 51 0
-91 -49 -133 94 0
-91 -50 -133 94 0
-91 -49 -134 94 0
-91 -50 -134 94 0
-92 -49 -133 94 0
-92 -50 -133 94 0
-92 -49 -134 94 0
-92 -50 -134 93 0
-133 -91 -175 136 0
-133 -92 -175 136 0
-133 -91 -176 136 0
-133 -92 -176 136 0
-134 -91 -175 136 0
-134 -92 -175 136 0
-134 -91 -176 136 0
-134 -92 -176 135 0
-175 -133 -217 178 0
-175 -134 -217 178 0
-175 -133 -218 178 0
-175 -134 -218 178 0
-176 -133 -217 178 0
-176 -134 -217 178 0
-176 -133 -218 178 0
-176 -134 -218 177 0
-217 -175 -259 220 0
-217 -176 -259 220 0
-217 -175 -260 220 0
-217 -176 -260 220 0
-218 -175 -259 220 0
-218 -176 -259 220 0
-218 -175 -260 220 0
-218 -176 -260 219 0
-259 -217 -301 262 0
-259 -218 -301 262 0
-259 -217 -302 262 0
-259 -218 -302 262 0
-260 -217 -301 262 0
-260 -218 -301 262 0
-260 -217 -302 262 0
-260 -218 -302 261 0
-301 -259 304 0
-301 -260 304 0
-302 -259 304 0
-302 -260 303 0
-9 -51 12 0
-9 -52 12 0
-10 -51 12 0
-10 -52 11 0
-51 -9 -93 54 0
-51 -10 -93 54 0
-51 -9 -94 54 0
-51 -10 -94 54 0
-52 -9 -93 54 0
-52 -10 -93 54 0
-52 -9 -94 54 0
-52 -10 -94 53 0
-93 -51 -135 96 0
-93 -52 -135 96 0
-93 -51 -136 96 0
-93 -52 -136 96 0
-94 -51 -135 96 0
-94 -52 -135 96 0
-94 -51 -136 96 0
-94 -52 -136 95 0
-135 -93 -177 138 0
-135 -94 -177 138 0
-135 -93 -178 138 0
-135 -94 -178 138 0
-136 -93 -177 138 0
-136 -94 -177 138 0
-136 -93 -178 138 0
-136 -94 -178 137 0
-177 -135 -219 180 0
-177 -136 -219 180 0
-177 -135 -220 180 0
-177 -136 -220 180 0
-178 -135 -219 180 0
-178 -136 -219 180 0
-178 -135 -220 180 0
-178 -136 -220 179 0
-219 -177 -261 222 0
-219 -178 -261 222 0
-219 -177 -262 222 0
-219 -178 -262 222 0
-220 -177 -261 222 0
-220 -178 -261 222 0
-220 -177 -262 222 0
-220 -178 -262 221 0
-261 -219 -303 264 0
-261 -220 -303 264 0
-261 -219 -304 264 0
-261 -220 -304 264 0
-262 -219 -303 264 0
-262 -220 -303 264 0
-262 -219 -304 264 0
-262 -220 -304 263 0
-303 -261 306 0
-303 -262 306 0
-304 -261 306 0
-304 -262 305 0
-11 -53 14 0
-11 -54 14 0
-12 -53 14 0
-12 -54 13 0
-53 -11 -95 56 0
-53 -12 -95 56 0
-53 -11 -96 56 0
-53 -12 -96 56 0
-54 -11 -95 56 0
-54 -12 -95 56 0
-54 -11 -96 56 0
-54 -12 -96 55 0
-95 -53 -137 98 0
-95 -54 -137 98 0
-95 -53 -138 98 0
-95 -54 -138 98 0
-96 -53 -137 98 0
-96 -54 -137 98 0
-96 -53 -138 98 0
-96 -54 -138 97 0
-137 -95 -179 140 0
-137 -96 -179 140 0
-137 -95 -180 140 0
-137 -96 -180 140 0
-138 -95 -179 140 0
-138 -96 -179 140 0
-138 -95 -180 140 0
-138 -96 -180 139 0
-179 -137 -221 182 0
-179 -138 -221 182 0
-179 -137 -222 182 0
-179 -138 -222 182 0
-180 -137 -221 182 0
-180 -138 -221 182 0
-180 -137 -222 182 0
-180 -138 -222 181 0
-221 -179 -263 224 0
-221 -180 -263 224 0
-221 -179 -264 224 0
-221 -180 -264 224 0
-222 -179 -263 224 0
-222 -180 -263 224 0
-222 -179 -264 224 0
-222 -180 -264 223 0
-263 -221 -305 266 0
-263 -222 -305 266 0
-263 -221 -306 266 0
-263 -222 -306 266 0
-264 -221 -305 266 0
-264 -222 -305 266 0
-264 -221 -306 266 0
-264 -222 -306 265 0
-305 -263 308 0
-305 -264 308 0
-306 -263 308 0
-306 -264 307 0
-13 -55 16 0
-13 -56 16 0
-14 -55 16 0
-14 -56 15 0
-55 -13 -97 58 0
-55 -14 -97 58 0
-55 -13 -98 58 0
-55 -14 -98 58 0
-56 -13 -97 58 0
-56 -14 -97 58 0
-56 -13 -98 58 0
-56 -14 -98 57 0
-97 -55 -139 100 0
-97 -56 -139 100 0
-97 -55 -140 100 0
-97 -56 -140 100 0
-98 -55 -139 100 0
-98 -56 -139 100 0
-98 -55 -140 100 0
-98 -56 -140 99 0
-139 -97 -181 142 0
-139 -98 -181 142 0
-139 -97 -182 142 0
-139 -98 -182 142 0
-140 -97 -181 142 0
-140 -98 -181 142 0
-140 -97 -182 142 0
-140 -98 -182 141 0
-181 -139 -223 184 0
-181 -140 -223 184 0
-181 -139 -224 184 0
-181 -140 -224 184 0
-182 -139 -223 184 0
-182 -140 -223 184 0
-182 -139 -224 184 0
-182 -140 -224 183 0
-223 -181 -265 226 0
-223 -182 -265 226 0
-223 -181 -266 226 0
-223 -182 -266 226 0
-224 -181 -265 226 0
-224 -182 -265 226 0
-224 -181 -266 226 0
-224 -182 -266 225 0
-265 -223 -307 268 0
-265 -224 -307 268 0
-265 -223 -308 268 0
-265 -224 -308 268 0
-266 -223 -307 268 0
-266 -224 -307 268 0
-266 -223 -308 268 0
-266 -224 -308 267 0
-307 -265 310 0
-307 -266 310 0
-308 -265 310 0
-308 -266 309 0
-15 -57 18 0
-15 -58 18 0
-16 -57 18 0
-16 -58 17 0
-57 -15 -99 60 0
-57 -16 -99 60 0
-57 -15 -100 60 0
-57 -16 -100 60 0
-58 -15 -99 60 0
-58 -16 -99 60 0
-58 -15 -100 60 0
-58 -16 -100 59 0
-99 -57 -141 102 0
-99 -58 -141 102 0
-99 -57 -142 102 0
-99 -58 -142 102 0
-100 -57 -141 102 0
-100 -58 -141 102 0
-100 -57 -142 102 0
-100 -58 -142 101 0
-141 -99 -183 144 0
-141 -100 -183 144 0
-141 -99 -184 144 0
-141 -100 -184 144 0
-142 -99 -183 144 0
-142 -100 -183 144 0
-142 -99 -184 144 0
-142 -100 -184 143 0
-183 -141 -225 186 0
-183 -142 -225 186 0
-183 -141 -226 186 0
-183 -142 -226 186 0
-184 -141 -225 186 0
-184 -142 -225 186 0
-184 -141 -226 186 0
-184 -142 -226 185 0
-225 -183 -267 228 0
-225 -184 -267 228 0
-225 -183 -268 228 0
-225 -184 -268 228 0
-226 -183 -267 228 0
-226 -184 -267 228 0
-226 -183 -268 228 0
-226 -184 -268 227 0
-267 -225 -309 270 0
-267 -226 -309 270 0
-267 -225 -310 270 0
-267 -226 -310 270 0
-268 -225 -309 270 0
-268 -226 -309 270 0
-268 -225 -310 270 0
-268 -226 -310 269 0
-309 -267 312 0
-309 -268 312 0
-310 -267 312 0
-310 -268 311 0
-17 -59 20 0
-17 -60 20 0
-18 -59 20 0
-18 -60 19 0
-59 -17 -101 62 0
-59 -18 -101 62 0
-59 -17 -102 62 0
-59 -18 -102 62 0
-60 -17 -101 62 0
-60 -18 -101 62 0
-60 -17 -102 62 0
-60 -18 -102 61 0
-101 -59 -143 104 0
-101 -60 -143 104 0
-101 -59 -144 104 0
-101 -60 -144 104 0
-102 -59 -143 104 0
-102 -60 -143 104 0
-102 -59 -144 104 0
-102 -60 -144 103 0
-143 -101 -185 146 0
-143 -102 -185 146 0
-143 -101 -186 146 0
-143 -102 -186 146 0
-144 -101 -185 146 0
-144 -102 -185 146 0
-144 -101 -186 146 0
-144 -102 -186 145 0
-185 -143 -227 188 0
-185 -144 -227 188 0
-185 -143 -228 188 0
-185 -144 -228 188 0
-186 -143 -227 188 0
-186 -144 -227 188 0
-186 -143 -228 188 0
-186 -144 -228 187 0
-227 -185 -269 230 0
-227 -186 -269 230 0
-227 -185 -270 230 0
-227 -186 -270 230 0
-228 -185 -269 230 0
-228 -186 -269 230 0
-228 -185 -270 230 0
-228 -186 -270 229 0
-269 -227 -311 272 0
-269 -228 -311 272 0
-269 -227 -312 272 0
-269 -228 -312 272 0
-270 -227 -311 272 0
-270 -228 -311 272 0
-270 -227 -312 272 0
-270 -228 -312 271 0
-311 -269 314 0
-311 -270 314 0
-312 -269 314 0
-312 -270 313 0
-19 -61 22 0
-19 -62 22 0
-20 -61 22 0
-20 -62 21 0
-61 -19 -103 64 0
-61 -20 -103 64 0
-61 -19 -104 64 0
-61 -20 -104 64 0
-62 -19 -103 64 0
-62 -20 -103 64 0
-62 -19 -104 64 0
-62 -20 -104 63 0
-103 -61 -145 106 0
-103 -62 -145 106 0
-103 -61 -146 106 0
-103 -62 -146 106 0
-104 -61 -145 106 0
-104 -62 -145 106 0
-104 -61 -146 106 0
-104 -62 -146 105 0
-145 -103 -187 148 0
-145 -104 -187 148 0
-145 -103 -188 148 0
-145 -104 -188 148 0
-146 -103 -187 148 0
-146 -104 -187 148 0
-146 -103 -188 148 0
-146 -104 -188 147 0
-187 -145 -229 190 0
-187 -146 -229 190 0
-187 -145 -230 190 0
-187 -146 -230 190 0
-188 -145 -229 190 0
-188 -146 -229 190 0
-188 -145 -230 190 0
-188 -146 -230 189 0
-229 -187 -271 232 0
-229 -188 -271 232 0
-229 -187 -272 232 0
-229 -188 -272 232 0
-230 -187 -271 232 0
-230 -188 -271 232 0
-230 -187 -272 232 0
-230 -188 -272 231 0
-271 -229 -313 274 0
-271 -230 -313 274 0
-271 -229 -314 274 0
-271 -230 -314 274 0
-272 -229 -313 274 0
-272 -230 -313 274 0
-272 -229 -314 274 0
-272 -230 -314 273 0
-313 -271 316 0
-313 -272 316 0
-314 -271 316 0
-314 -272 315 0
-21 -63 24 0
-21 -64 24 0
-22 -63 24 0
-22 -64 23 0
-63 -21 -105 66 0
-63 -22 -105 66 0
-63 -21 -106 66 0
-63 -22 -106 66 0
-64 -21 -105 66 0
-64 -22 -105 66 0
-64 -21 -106 66 0
-64 -22 -106 65 0
-105 -63 -147 108 0
-105 -64 -147 108 0
-105 -63 -148 108 0
-105 -64 -148 108 0
-106 -63 -147 108 0
-106 -64 -147 108 0
-106 -63 -148 108 0
-106 -64 -148 107 0
-147 -105 -189 150 0
-147 -106 -189 150 0
-147 -105 -190 150 0
-147 -106 -190 150 0
-148 -105 -189 150 0
-148 -106 -189 150 0
-148 -105 -190 150 0
-148 -106 -190 149 0
-189 -147 -231 192 0
-189 -148 -231 192 0
-189 -147 -232 192 0
-189 -148 -232 192 0
-190 -147 -231 192 0
-190 -148 -231 192 0
-190 -147 -232 192 0
-190 -148 -232 191 0
-231 -189 -273 234 0
-231 -190 -273 234 0
-231 -189 -274 234 0
-231 -190 -274 234 0
-232 -189 -273 234 0
-232 -190 -273 234 0
-232 -189 -274 234 0
-232 -190 -274 233 0
-273 -231 -315 276 0
-273 -232 -315 276 0
-273 -231 -316 276 0
-273 -232 -316 276 0
-274 -231 -315 276 0
-274 -232 -315 276 0
-274 -231 -316 276 0
-274 -232 -316 275 0
-315 -273 318 0
-315 -274 318 0
-316 -273 318 0
-316 -274 317 0
-23 -65 26 0
-23 -66 26 0
-24 -65 26 0
-24 -66 25 0
-65 -23 -107 68 0
-65 -24 -107 68 0
-65 -23 -108 68 0
-65 -24 -108 68 0
-66 -23 -107 68 0
-66 -24 -107 68 0
-66 -23 -108 68 0
-66 -24 -108 67 0
-107 -65 -149 110 0
-107 -66 -149 110 0
-107 -65 -150 110 0
-107 -66 -150 110 0
-108 -65 -149 110 0
-108 -66 -149 110 0
-108 -65 -150 110 0
-108 -66 -150 109 0
-149 -107 -191 152 0
-149 -108 -191 152 0
-149 -107 -192 152 0
-149 -108 -192 152 0
-150 -107 -191 152 0
-150 -108 -191 152 0
-150 -107 -192 152 0
-150 -108 -192 151 0
-191 -149 -233 194 0
-191 -150 -233 194 0
-191 -149 -234 194 0
-191 -150 -234 194 0
-192 -149 -233 194 0
-192 -150 -233 194 0
-192 -149 -234 194 0
-192 -150 -234 193 0
-233 -191 -275 236 0
-233 -192 -275 236 0
-233 -191 -276 236 0
-233 -192 -276 236 0
-234 -191 -275 236 0
-234 -192 -275 236 0
-234 -191 -276 236 0
-234 -192 -276 235 0
-275 -233 -317 278 0
-275 -234 -317 278 0
-275 -233 -318 278 0
-275 -234 -318 278 0
-276 -233 -317 278 0
-276 -234 -317 278 0
-276 -233 -318 278 0
-276 -234 -318 277 0
-317 -275 320 0
-317 -276 320 0
-318 -275 320 0
-318 -276 319 0
-25 -67 28 0
-25 -68 28 0
-26 -67 28 0
-26 -68 27 0
-67 -25 -109 70 0
-67 -26 -109 70 0
-67 -25 -110 70 0
-67 -26 -110 70 0
-68 -25 -109 70 0
-68 -26 -109 70 0
-68 -25 -110 70 0
-68 -26 -110 69 0
-109 -67 -151 112 0
-109 -68 -151 112 0
-109 -67 -152 112 0
-109 -68 -152 112 0
-110 -67 -151 112 0
-110 -68 -151 112 0
-110 -67 -152 112 0
-110 -68 -152 111 0
-151 -109 -193 154 0
-151 -110 -193 154 0
-151 -109 -194 154 0
-151 -110 -194 154 0
-152 -109 -193 154 0
-152 -110 -193 154 0
-152 -109 -194 154 0
-152 -110 -194 153 0
-193 -151 -235 196 0
-193 -152 -235 196 0
-193 -151 -236 196 0
-193 -152 -236 196 0
-194 -151 -235 196 0
-194 -152 -235 196 0
-194 -151 -236 196 0
-194 -152 -236 195 0
-235 -193 -277 238 0
-235 -194 -277 238 0
-235 -193 -278 238 0
-235 -194 -278 238 0
-236 -193 -277 238 0
-236 -194 -277 238 0
-236 -193 -278 238 0
-236 -194 -278 237 0
-277 -235 -319 280 0
-277 -236 -319 280 0
-277 -235 -320 280 0
-277 -236 -320 280 0
-278 -235 -319 280 0
-278 -236 -319 280 0
-278 -235 -320 280 0
-278 -236 -320 279 0
-319 -277 322 0
-319 -278 322 0
-320 -277 322 0
-320 -278 321 0
-27 -69 30 0
-27 -70 30 0
-28 -69 30 0
-28 -70 29 0
-69 -27 -111 72 0
-69 -28 -111 72 0
-69 -27 -112 72 0
-69 -28 -112 72 0
-70 -27 -111 72 0
-70 -28 -111 72 0
-70 -27 -112 72 0
-70 -28 -112 71 0
-111 -69 -153 114 0
-111 -70 -153 114 0
-111 -69 -154 114 0
-111 -70 -154 114 0
-112 -69 -153 114 0
-112 -70 -153 114 0
-112 -69 -154 114 0
-112 -70 -154 113 0
-153 -111 -195 156 0
-153 -112 -195 156 0
-153 -111 -196 156 0
-153 -112 -196 156 0
-154 -111 -195 156 0
-154 -112 -195 156 0
-154 -111 -196 156 0
-154 -112 -196 155 0
-195 -153 -237 198 0
-195 -154 -237 198 0
-195 -153 -238 198 0
-195 -154 -238 198 0
-196 -153 -237 198 0
-196 -154 -237 198 0
-196 -153 -238 198 0
-196 -154 -238 197 0
-237 -195 -279 240 0
-237 -196 -279 240 0
-237 -195 -280 240 0
-237 -196 -280 240 0
-238 -195 -279 240 0
-238 -196 -279 240 0
-238 -195 -280 240 0
-238 -196 -280 239 0
-279 -237 -321 282 0
-279 -238 -321 282 0
-279 -237 -322 282 0
-279 -238 -322 282 0
-280 -237 -321 282 0
-280 -238 -321 282 0
-280 -237 -322 282 0
-280 -238 -322 281 0
-321 -279 324 0
-321 -280 324 0
-322 -279 324 0
-322 -280 323 0
-29 -71 32 0
-29 -72 32 0
-30 -71 32 0
-30 -72 31 0
-71 -29 -113 74 0
-71 -30 -113 74 0
-71 -29 -114 74 0
-71 -30 -114 74 0
-72 -29 -113 74 0
-72 -30 -113 74 0
-72 -29 -114 74 0
-72 -30 -114 73 0
-113 -71 -155 116 0
-113 -72 -155 116 0
-113 -71 -156 116 0
-113 -72 -156 116 0
-114 -71 -155 116 0
-114 -72 -155 116 0
-114 -71 -156 116 0
-114 -72 -156 115 0
-155 -113 -197 158 0
-155 -114 -197 158 0
-155 -113 -198 158 0
-155 -114 -198 158 0
-156 -113 -197 158 0
-156 -114 -197 158 0
-156 -113 -198 158 0
-156 -114 -198 157 0
-197 -155 -239 200 0
-197 -156 -239 200 0
-197 -155 -240 200 0
-197 -156 -240 200 0
-198 -155 -239 200 0
-198 -156 -239 200 0
-198 -155 -240 200 0
-198 -156 -240 199 0
-239 -197 -281 242 0
-239 -198 -281 242 0
-239 -197 -282 242 0
-239 -198 -282 242 0
-240 -197 -281 242 0
-240 -198 -281 242 0
-240 -197 -282 242 0
-240 -198 -282 241 0
-281 -239 -323 284 0
-281 -240 -323 284 0
-281 -239 -324 284 0
-281 -240 -324 284 0
-282 -239 -323 284 0
-282 -240 -323 284 0
-282 -239 -324 284 0
-282 -240 -324 283 0
-323 -281 326 0
-323 -282 326 0
-324 -281 326 0
-324 -282 325 0
-31 -73 34 0
-31 -74 34 0
-32 -73 34 0
-32 -74 33 0
-73 -31 -115 76 0
-73 -32 -115 76 0
-73 -31 -116 76 0
-73 -32 -116 76 0
-74 -31 -115 76 0
-74 -32 -115 76 0
-74 -31 -116 76 0
-74 -32 -116 75 0
-115 -73 -157 118 0
-115 -74 -157 118 0
-115 -73 -158 118 0
-115 -74 -158 118 0
-116 -73 -157 118 0
-116 -74 -157 118 0
-116 -73 -158 118 0
-116 -74 -158 117 0
-157 -115 -199 160 0
-157 -116 -199 160 0
-157 -115 -200 160 0
-157 -116 -200 160 0
-158 -115 -199 160 0
-158 -116 -199 160 0
-158 -115 -200 160 0
-158 -116 -200 159 0
-199 -157 -241 202 0
-199 -158 -241 202 0
-199 -157 -242 202 0
-199 -158 -242 202 0
-200 -157 -241 202 0
-200 -158 -241 202 0
-200 -157 -242 202 0
-200 -158 -242 201 0
-241 -199 -283 244 0
-241 -200 -283 244 0
-241 -199 -284 244 0
-241 -200 -284 244 0
-242 -199 -283 244 0
-242 -200 -283 244 0
-242 -199 -284 244 0
-242 -200 -284 243 0
-283 -241 -325 286 0
-283 -242 -325 286 0
-283 -241 -326 286 0
-283 -242 -326 286 0
-284 -241 -325 286 0
-284 -242 -325 286 0
-284 -241 -326 286 0
-284 -242 -326 285 0
-325 -283 328 0
-325 -284 328 0
-326 -283 328 0
-326 -284 327 0
-33 -75 36 0
-33 -76 36 0
-34 -75 36 0
-34 -76 35 0
-75 -33 -117 78 0
-75 -34 -117 78 0
-75 -33 -118 78 0
-75 -34 -118 78 0
-76 -33 -117 78 0
-76 -34 -117 78 0
-76 -33 -118 78 0
-76 -34 -118 77 0
-117 -75 -159 120 0
-117 -76 -159 120 0
-117 -75 -160 120 0
-117 -76 -160 120 0
-118 -75 -159 120 0
-118 -76 -159 120 0
-118 -75 -160 120 0
-118 -76 -160 119 0
-159 -117 -201 162 0
-159 -118 -201 162 0
-159 -117 -202 162 0
-159 -118 -202 162 0
-160 -117 -201 162 0
-160 -118 -201 162 0
-160 -117 -202 162 0
-160 -118 -202 161 0
-201 -159 -243 204 0
-201 -160 -243 204 0
-201 -159 -244 204 0
-201 -160 -244 204 0
-202 -159 -243 204 0
-202 -160 -243 204 0
-202 -159 -244 204 0
-202 -160 -244 203 0
-243 -201 -285 246 0
-243 -202 -285 246 0
-243 -201 -286 246 0
-243 -202 -286 246 0
-244 -201 -285 246 0
-244 -202 -285 246 0
-244 -201 -286 246 0
-244 -202 -286 245 0
-285 -243 -327 288 0
-285 -244 -327 288 0
-285 -243 -328 288 0
-285 -244 -328 288 0
-286 -243 -327 288 0
-286 -244 -327 288 0
-286 -243 -328 288 0
-286 -244 -328 287 0
-327 -285 330 0
-327 -286 330 0
-328 -285 330 0
-328 -286 329 0
-35 -77 38 0
-35 -78 38 0
-36 -77 38 0
-36 -78 37 0
-77 -35 -119 80 0
-77 -36 -119 80 0
-77 -35 -120 80 0
-77 -36 -120 80 0
-78 -35 -119 80 0
-78 -36 -119 80 0
-78 -35 -120 80 0
-78 -36 -120 79 0
-119 -77 -161 122 0
-119 -78 -161 122 0
-119 -77 -162 122 0
-119 -78 -162 122 0
-120 -77 -161 122 0
-120 -78 -161 122 0
-120 -77 -162 122 0
-120 -78 -162 121 0
-161 -119 -203 164 0
-161 -120 -203 164 0
-161 -119 -204 164 0
-161 -120 -204 164 0
-162 -119 -203 164 0
-162 -120 -203 164 0
-162 -119 -204 164 0
-162 -120 -204 163 0
-203 -161 -245 206 0
-203 -162 -245 206 0
-203 -161 -246 206 0
-203 -162 -246 206 0
-204 -161 -245 206 0
-204 -162 -245 206 0
-204 -161 -246 206 0
-204 -162 -246 205 0
-245 -203 -287 248 0
-245 -204 -287 248 0
-245 -203 -288 248 0
-245 -204 -288 248 0
-246 -203 -287 248 0
-246 -204 -287 248 0
-246 -203 -288 248 0
-246 -204 -288 247 0
-287 -245 -329 290 0
-287 -246 -329 290 0
-287 -245 -330 290 0
-287 -246 -330 290 0
-288 -245 -329 290 0
-288 -246 -329 290 0
-288 -245 -330 290 0
-288 -246 -330 289 0
-329 -287 332 0
-329 -288 332 0
-330 -287 332 0
-330 -288 331 0
-37 -79 40 0
-37 -80 40 0
-38 -79 40 0
-38 -80 39 0
-79 -37 -121 82 0
-79 -38 -121 82 0
-79 -37 -122 82 0
-79 -38 -122 82 0
-80 -37 -121 82 0
-80 -38 -121 82 0
-80 -37 -122 82 0
-80 -38 -122 81 0
-121 -79 -163 124 0
-121 -80 -163 124 0
-121 -79 -164 124 0
-121 -80 -164 124 0
-122 -79 -163 124 0
-122 -80 -163 124 0
-122 -79 -164 124 0
-122 -80 -164 123 0
-163 -121 -205 166 0
-163 -122 -205 166 0
-163 -121 -206 166 0
-163 -122 -206 166 0
-164 -121 -205 166 0
-164 -122 -205 166 0
-164 -121 -206 166 0
-164 -122 -206 165 0
-205 -163 -247 208 0
-205 -164 -247 208 0
-205 -163 -248 208 0
-205 -164 -248 208 0
-206 -163 -247 208 0
-206 -164 -247 208 0
-206 -163 -248 208 0
-206 -164 -248 207 0
-247 -205 -289 250 0
-247 -206 -289 250 0
-247 -205 -290 250 0
-247 -206 -290 250 0
-248 -205 -289 250 0
-248 -206 -289 250 0
-248 -205 -290 250 0
-248 -206 -290 249 0
-289 -247 -331 292 0
-289 -248 -331 292 0
-289 -247 -332 292 0
-289 -248 -332 292 0
-290 -247 -331 292 0
-290 -248 -331 292 0
-290 -247 -332 292 0
-290 -248 -332 291 0
-331 -289 334 0
-331 -290 334 0
-332 -289 334 0
-332 -290 333 0
-39 -81 42 0
-39 -82 42 0
-40 -81 42 0
-40 -82 41 0
-81 -39 -123 84 0
-81 -40 -123 84 0
-81 -39 -124 84 0
-81 -40 -124 84 0
-82 -39 -123 84 0
-82 -40 -123 84 0
-82 -39 -124 84 0
-82 -40 -124 83 0
-123 -81 -165 126 0
-123 -82 -165 126 0
-123 -81 -166 126 0
-123 -82 -166 126 0
-124 -81 -165 126 0
-124 -82 -165 126 0
-124 -81 -166 126 0
-124 -82 -166 125 0
-165 -123 -207 168 0
-165 -124 -207 168 0
-165 -123 -208 168 0
-165 -124 -208 168 0
-166 -123 -207 168 0
-166 -124 -207 168 0
-166 -123 -208 168 0
-166 -124 -208 167 0
-207 -165 -249 210 0
-207 -166 -249 210 0
-207 -165 -250 210 0
-207 -166 -250 210 0
-208 -165 -249 210 0
-208 -166 -249 210 0
-208 -165 -250 210 0
-208 -166 -250 209 0
-249 -207 -291 252 0
-249 -208 -291 252 0
-249 -207 -292 252 0
-249 -208 -292 252 0
-250 -207 -291 252 0
-250 -208 -291 252 0
-250 -207 -292 252 0
-250 -208 -292 251 0
-291 -249 -333 294 0
-291 -250 -333 294 0
-291 -249 -334 294 0
-291 -250 -334 294 0
-292 -249 -333 294 0
-292 -250 -333 294 0
-292 -249 -334 294 0
-292 -250 -334 293 0
-333 -291 336 0
-333 -292 336 0
-334 -291 336 0
-334 -292 335 0
-41 -83 -125 -167 -209 -251 -293 -335 0
-42 -84 -126 -168 -210 -252 -294 -336 0
-1 -43 -85 -127 -169 -211 -253 -295 0
-2 -44 -86 -128 -170 -212 -254 -296 0
-3 -45 -87 -129 -171 -213 -255 -297 0
-4 -46 -88 -130 -172 -214 -256 -298 0
-5 -47 -89 -131 -173 -215 -257 -299 0
-6 -48 -90 -132 -174 -216 -258 -300 0
-7 -49 -91 -133 -175 -217 -259 -301 0
-8 -50 -92 -134 -176 -218 -260 -302 0
-9 -51 -93 -135 -177 -219 -261 -303 0
-10 -52 -94 -136 -178 -220 -262 -304 0
-11 -53 -95 -137 -179 -221 -263 -305 0
-12 -54 -96 -138 -180 -222 -264 -306 0
-13 -55 -97 -139 -181 -223 -265 -307 0
-14 -56 -98 -140 -182 -224 -266 -308 0
-15 -57 -99 -141 -183 -225 -267 -309 0
-16 -58 -100 -142 -184 -226 -268 -310 0
-17 -59 -101 -143 -185 -227 -269 -311 0
-18 -60 -102 -144 -186 -228 -270 -312 0
-19 -61 -103 -145 -187 -229 -271 -313 0
-20 -62 -104 -146 -188 -230 -272 -314 0
-21 -63 -105 -147 -189 -231 -273 -315 0
-22 -64 -106 -148 -190 -232 -274 -316 0
-23 -65 -107 -149 -191 -233 -275 -317 0
-24 -66 -108 -150 -192 -234 -276 -318 0
-25 -67 -109 -151 -193 -235 -277 -319 0
-26 -68 -110 -152 -194 -236 -278 -320 0
-27 -69 -111 -153 -195 -237 -279 -321 0
-28 -70 -112 -154 -196 -238 -280 -322 0
-29 -71 -113 -155 -197 -239 -281 -323 0
-30 -72 -114 -156 -198 -240 -282 -324 0
-31 -73 -115 -157 -199 -241 -283 -325 0
-32 -74 -116 -158 -200 -242 -284 -326 0
-33 -75 -117 -159 -201 -243 -285 -327 0
-34 -76 -118 -160 -202 -244 -286 -328 0
-35 -77 -119 -161 -203 -245 -287 -329 0
-36 -78 -120 -162 -204 -246 -288 -330 0
-37 -79 -121 -163 -205 -247 -289 -331 0
-38 -80 -122 -164 -206 -248 -290 -332 0
-39 -81 -123 -165 -207 -249 -291 -333 0
-40 -82 -124 -166 -208 -250 -292 -334 0
